\ Model CS_Port_Power_Optimization
\ LP format - for model browsing. Use MPS format to capture full model detail.
\ Signature: 0x735567312cfe568
Maximize
  select[0,1,50] + select[0,1,100] + select[0,2,50] + select[0,2,100]
   + select[0,3,50] + select[0,3,100] + select[0,4,50] + select[0,4,100]
   + 1.425287356321839 select[1,1,50] + 1.425287356321839 select[1,1,100]
   + 1.425287356321839 select[1,2,50] + 1.425287356321839 select[1,2,100]
   + 1.425287356321839 select[1,3,50] + 1.425287356321839 select[1,3,100]
   + 1.425287356321839 select[1,4,50] + 1.425287356321839 select[1,4,100]
   + 1.387267904509284 select[2,1,50] + 1.387267904509284 select[2,1,100]
   + 1.387267904509284 select[2,2,50] + 1.387267904509284 select[2,2,100]
   + 1.387267904509284 select[2,3,50] + 1.387267904509284 select[2,3,100]
   + 1.387267904509284 select[2,4,50] + 1.387267904509284 select[2,4,100]
   + 1.358974358974359 select[3,1,50] + 1.358974358974359 select[3,1,100]
   + 1.358974358974359 select[3,2,50] + 1.358974358974359 select[3,2,100]
   + 1.358974358974359 select[3,3,50] + 1.358974358974359 select[3,3,100]
   + 1.358974358974359 select[3,4,50] + 1.358974358974359 select[3,4,100]
   + select[4,1,50] + select[4,1,100] + select[4,2,50] + select[4,2,100]
   + select[4,3,50] + select[4,3,100] + select[4,4,50] + select[4,4,100]
   + select[5,1,50] + select[5,1,100] + select[5,2,50] + select[5,2,100]
   + select[5,3,50] + select[5,3,100] + select[5,4,50] + select[5,4,100]
   + select[6,1,50] + select[6,1,100] + select[6,2,50] + select[6,2,100]
   + select[6,3,50] + select[6,3,100] + select[6,4,50] + select[6,4,100]
Subject To
 unique_selection_0: select[0,0,50] + select[0,0,100] + select[0,1,50]
   + select[0,1,100] + select[0,2,50] + select[0,2,100] + select[0,3,50]
   + select[0,3,100] + select[0,4,50] + select[0,4,100] <= 1
 unique_selection_1: select[1,0,50] + select[1,0,100] + select[1,1,50]
   + select[1,1,100] + select[1,2,50] + select[1,2,100] + select[1,3,50]
   + select[1,3,100] + select[1,4,50] + select[1,4,100] <= 1
 unique_selection_2: select[2,0,50] + select[2,0,100] + select[2,1,50]
   + select[2,1,100] + select[2,2,50] + select[2,2,100] + select[2,3,50]
   + select[2,3,100] + select[2,4,50] + select[2,4,100] <= 1
 unique_selection_3: select[3,0,50] + select[3,0,100] + select[3,1,50]
   + select[3,1,100] + select[3,2,50] + select[3,2,100] + select[3,3,50]
   + select[3,3,100] + select[3,4,50] + select[3,4,100] <= 1
 unique_selection_4: select[4,0,50] + select[4,0,100] + select[4,1,50]
   + select[4,1,100] + select[4,2,50] + select[4,2,100] + select[4,3,50]
   + select[4,3,100] + select[4,4,50] + select[4,4,100] <= 1
 unique_selection_5: select[5,0,50] + select[5,0,100] + select[5,1,50]
   + select[5,1,100] + select[5,2,50] + select[5,2,100] + select[5,3,50]
   + select[5,3,100] + select[5,4,50] + select[5,4,100] <= 1
 unique_selection_6: select[6,0,50] + select[6,0,100] + select[6,1,50]
   + select[6,1,100] + select[6,2,50] + select[6,2,100] + select[6,3,50]
   + select[6,3,100] + select[6,4,50] + select[6,4,100] <= 1
 unique_selection_7: select[7,0,50] + select[7,0,100] + select[7,1,50]
   + select[7,1,100] + select[7,2,50] + select[7,2,100] + select[7,3,50]
   + select[7,3,100] + select[7,4,50] + select[7,4,100] <= 1
 unique_selection_8: select[8,0,50] + select[8,0,100] + select[8,1,50]
   + select[8,1,100] + select[8,2,50] + select[8,2,100] + select[8,3,50]
   + select[8,3,100] + select[8,4,50] + select[8,4,100] <= 1
 port_zero_constraint_0: select[0,0,50] + select[0,0,100] <= 1
 port_zero_constraint_1: select[1,0,50] + select[1,0,100] <= 1
 port_zero_constraint_2: select[2,0,50] + select[2,0,100] <= 1
 port_zero_constraint_3: select[3,0,50] + select[3,0,100] <= 1
 port_zero_constraint_4: select[4,0,50] + select[4,0,100] <= 1
 port_zero_constraint_5: select[5,0,50] + select[5,0,100] <= 1
 port_zero_constraint_6: select[6,0,50] + select[6,0,100] <= 1
 port_zero_constraint_7: select[7,0,50] + select[7,0,100] <= 1
 port_zero_constraint_8: select[8,0,50] + select[8,0,100] <= 1
 min_cs_count: select[0,1,50] + select[0,1,100] + select[0,2,50]
   + select[0,2,100] + select[0,3,50] + select[0,3,100] + select[0,4,50]
   + select[0,4,100] + select[1,1,50] + select[1,1,100] + select[1,2,50]
   + select[1,2,100] + select[1,3,50] + select[1,3,100] + select[1,4,50]
   + select[1,4,100] + select[2,1,50] + select[2,1,100] + select[2,2,50]
   + select[2,2,100] + select[2,3,50] + select[2,3,100] + select[2,4,50]
   + select[2,4,100] + select[3,1,50] + select[3,1,100] + select[3,2,50]
   + select[3,2,100] + select[3,3,50] + select[3,3,100] + select[3,4,50]
   + select[3,4,100] + select[4,1,50] + select[4,1,100] + select[4,2,50]
   + select[4,2,100] + select[4,3,50] + select[4,3,100] + select[4,4,50]
   + select[4,4,100] + select[5,1,50] + select[5,1,100] + select[5,2,50]
   + select[5,2,100] + select[5,3,50] + select[5,3,100] + select[5,4,50]
   + select[5,4,100] + select[6,1,50] + select[6,1,100] + select[6,2,50]
   + select[6,2,100] + select[6,3,50] + select[6,3,100] + select[6,4,50]
   + select[6,4,100] + select[7,1,50] + select[7,1,100] + select[7,2,50]
   + select[7,2,100] + select[7,3,50] + select[7,3,100] + select[7,4,50]
   + select[7,4,100] + select[8,1,50] + select[8,1,100] + select[8,2,50]
   + select[8,2,100] + select[8,3,50] + select[8,3,100] + select[8,4,50]
   + select[8,4,100] >= 1
 max_cs_count: select[0,1,50] + select[0,1,100] + select[0,2,50]
   + select[0,2,100] + select[0,3,50] + select[0,3,100] + select[0,4,50]
   + select[0,4,100] + select[1,1,50] + select[1,1,100] + select[1,2,50]
   + select[1,2,100] + select[1,3,50] + select[1,3,100] + select[1,4,50]
   + select[1,4,100] + select[2,1,50] + select[2,1,100] + select[2,2,50]
   + select[2,2,100] + select[2,3,50] + select[2,3,100] + select[2,4,50]
   + select[2,4,100] + select[3,1,50] + select[3,1,100] + select[3,2,50]
   + select[3,2,100] + select[3,3,50] + select[3,3,100] + select[3,4,50]
   + select[3,4,100] + select[4,1,50] + select[4,1,100] + select[4,2,50]
   + select[4,2,100] + select[4,3,50] + select[4,3,100] + select[4,4,50]
   + select[4,4,100] + select[5,1,50] + select[5,1,100] + select[5,2,50]
   + select[5,2,100] + select[5,3,50] + select[5,3,100] + select[5,4,50]
   + select[5,4,100] + select[6,1,50] + select[6,1,100] + select[6,2,50]
   + select[6,2,100] + select[6,3,50] + select[6,3,100] + select[6,4,50]
   + select[6,4,100] + select[7,1,50] + select[7,1,100] + select[7,2,50]
   + select[7,2,100] + select[7,3,50] + select[7,3,100] + select[7,4,50]
   + select[7,4,100] + select[8,1,50] + select[8,1,100] + select[8,2,50]
   + select[8,2,100] + select[8,3,50] + select[8,3,100] + select[8,4,50]
   + select[8,4,100] <= 5
 max_total_power: 50 select[0,1,50] + 100 select[0,1,100]
   + 100 select[0,2,50] + 200 select[0,2,100] + 150 select[0,3,50]
   + 300 select[0,3,100] + 200 select[0,4,50] + 400 select[0,4,100]
   + 50 select[1,1,50] + 100 select[1,1,100] + 100 select[1,2,50]
   + 200 select[1,2,100] + 150 select[1,3,50] + 300 select[1,3,100]
   + 200 select[1,4,50] + 400 select[1,4,100] + 50 select[2,1,50]
   + 100 select[2,1,100] + 100 select[2,2,50] + 200 select[2,2,100]
   + 150 select[2,3,50] + 300 select[2,3,100] + 200 select[2,4,50]
   + 400 select[2,4,100] + 50 select[3,1,50] + 100 select[3,1,100]
   + 100 select[3,2,50] + 200 select[3,2,100] + 150 select[3,3,50]
   + 300 select[3,3,100] + 200 select[3,4,50] + 400 select[3,4,100]
   + 50 select[4,1,50] + 100 select[4,1,100] + 100 select[4,2,50]
   + 200 select[4,2,100] + 150 select[4,3,50] + 300 select[4,3,100]
   + 200 select[4,4,50] + 400 select[4,4,100] + 50 select[5,1,50]
   + 100 select[5,1,100] + 100 select[5,2,50] + 200 select[5,2,100]
   + 150 select[5,3,50] + 300 select[5,3,100] + 200 select[5,4,50]
   + 400 select[5,4,100] + 50 select[6,1,50] + 100 select[6,1,100]
   + 100 select[6,2,50] + 200 select[6,2,100] + 150 select[6,3,50]
   + 300 select[6,3,100] + 200 select[6,4,50] + 400 select[6,4,100]
   + 50 select[7,1,50] + 100 select[7,1,100] + 100 select[7,2,50]
   + 200 select[7,2,100] + 150 select[7,3,50] + 300 select[7,3,100]
   + 200 select[7,4,50] + 400 select[7,4,100] + 50 select[8,1,50]
   + 100 select[8,1,100] + 100 select[8,2,50] + 200 select[8,2,100]
   + 150 select[8,3,50] + 300 select[8,3,100] + 200 select[8,4,50]
   + 400 select[8,4,100] <= 500
 budget_constraint: 580 select[0,1,50] + 930 select[0,1,100]
   + 960 select[0,2,50] + 1660 select[0,2,100] + 1340 select[0,3,50]
   + 2390 select[0,3,100] + 1720 select[0,4,50] + 3120 select[0,4,100]
   + 580 select[1,1,50] + 930 select[1,1,100] + 960 select[1,2,50]
   + 1660 select[1,2,100] + 1340 select[1,3,50] + 2390 select[1,3,100]
   + 1720 select[1,4,50] + 3120 select[1,4,100] + 580 select[2,1,50]
   + 930 select[2,1,100] + 960 select[2,2,50] + 1660 select[2,2,100]
   + 1340 select[2,3,50] + 2390 select[2,3,100] + 1720 select[2,4,50]
   + 3120 select[2,4,100] + 580 select[3,1,50] + 930 select[3,1,100]
   + 960 select[3,2,50] + 1660 select[3,2,100] + 1340 select[3,3,50]
   + 2390 select[3,3,100] + 1720 select[3,4,50] + 3120 select[3,4,100]
   + 580 select[4,1,50] + 930 select[4,1,100] + 960 select[4,2,50]
   + 1660 select[4,2,100] + 1340 select[4,3,50] + 2390 select[4,3,100]
   + 1720 select[4,4,50] + 3120 select[4,4,100] + 580 select[5,1,50]
   + 930 select[5,1,100] + 960 select[5,2,50] + 1660 select[5,2,100]
   + 1340 select[5,3,50] + 2390 select[5,3,100] + 1720 select[5,4,50]
   + 3120 select[5,4,100] + 580 select[6,1,50] + 930 select[6,1,100]
   + 960 select[6,2,50] + 1660 select[6,2,100] + 1340 select[6,3,50]
   + 2390 select[6,3,100] + 1720 select[6,4,50] + 3120 select[6,4,100]
   + 580 select[7,1,50] + 930 select[7,1,100] + 960 select[7,2,50]
   + 1660 select[7,2,100] + 1340 select[7,3,50] + 2390 select[7,3,100]
   + 1720 select[7,4,50] + 3120 select[7,4,100] + 580 select[8,1,50]
   + 930 select[8,1,100] + 960 select[8,2,50] + 1660 select[8,2,100]
   + 1340 select[8,3,50] + 2390 select[8,3,100] + 1720 select[8,4,50]
   + 3120 select[8,4,100] <= 10000
Bounds
Binaries
 select[0,0,50] select[0,0,100] select[0,1,50] select[0,1,100]
 select[0,2,50] select[0,2,100] select[0,3,50] select[0,3,100]
 select[0,4,50] select[0,4,100] select[1,0,50] select[1,0,100]
 select[1,1,50] select[1,1,100] select[1,2,50] select[1,2,100]
 select[1,3,50] select[1,3,100] select[1,4,50] select[1,4,100]
 select[2,0,50] select[2,0,100] select[2,1,50] select[2,1,100]
 select[2,2,50] select[2,2,100] select[2,3,50] select[2,3,100]
 select[2,4,50] select[2,4,100] select[3,0,50] select[3,0,100]
 select[3,1,50] select[3,1,100] select[3,2,50] select[3,2,100]
 select[3,3,50] select[3,3,100] select[3,4,50] select[3,4,100]
 select[4,0,50] select[4,0,100] select[4,1,50] select[4,1,100]
 select[4,2,50] select[4,2,100] select[4,3,50] select[4,3,100]
 select[4,4,50] select[4,4,100] select[5,0,50] select[5,0,100]
 select[5,1,50] select[5,1,100] select[5,2,50] select[5,2,100]
 select[5,3,50] select[5,3,100] select[5,4,50] select[5,4,100]
 select[6,0,50] select[6,0,100] select[6,1,50] select[6,1,100]
 select[6,2,50] select[6,2,100] select[6,3,50] select[6,3,100]
 select[6,4,50] select[6,4,100] select[7,0,50] select[7,0,100]
 select[7,1,50] select[7,1,100] select[7,2,50] select[7,2,100]
 select[7,3,50] select[7,3,100] select[7,4,50] select[7,4,100]
 select[8,0,50] select[8,0,100] select[8,1,50] select[8,1,100]
 select[8,2,50] select[8,2,100] select[8,3,50] select[8,3,100]
 select[8,4,50] select[8,4,100]
End
